NAME: ACTUAL_TOURS/amz1660
TYPE: TOUR
COMMENT: RouteID_b2d6082b-8483-409d-9319-3eb98de3f462
DIMENSION: 105
TOUR_SECTION
61
18
20
72
91
73
55
14
85
31
87
29
89
58
84
95
76
36
41
100
30
67
68
102
86
1
25
17
7
97
40
34
88
101
49
83
60
35
22
50
11
52
21
92
96
33
37
82
19
74
15
10
62
105
23
94
59
8
104
65
9
66
24
56
6
64
4
70
63
75
43
5
51
71
53
46
69
79
27
98
2
28
90
32
39
48
77
103
16
12
93
54
57
44
3
99
13
81
78
26
47
80
45
42
38
-1
EOF
